*SENSE:Maximize
NAME          MODEL
ROWS
 N  OBJ
 L  C0000000
 L  C0000001
 L  C0000002
 L  C0000003
 L  C0000004
 L  C0000005
 L  C0000006
 L  C0000007
 L  C0000008
 L  C0000009
 L  C0000010
 L  C0000011
 L  C0000012
 L  C0000013
 L  C0000014
 L  C0000015
 L  C0000016
 L  C0000017
 L  C0000018
 L  C0000019
 L  C0000020
 L  C0000021
 L  C0000022
 L  C0000023
 L  C0000024
 L  C0000025
 L  C0000026
 L  C0000027
 L  C0000028
 L  C0000029
 L  C0000030
 L  C0000031
 L  C0000032
 L  C0000033
 L  C0000034
 L  C0000035
 L  C0000036
 L  C0000037
 L  C0000038
 L  C0000039
 L  C0000040
 L  C0000041
 L  C0000042
 L  C0000043
 L  C0000044
 L  C0000045
 L  C0000046
 L  C0000047
 L  C0000048
 L  C0000049
 L  C0000050
 L  C0000051
 L  C0000052
 L  C0000053
 L  C0000054
 L  C0000055
 L  C0000056
 L  C0000057
 L  C0000058
 L  C0000059
 L  C0000060
 L  C0000061
 L  C0000062
 L  C0000063
 L  C0000064
 L  C0000065
 L  C0000066
 L  C0000067
 L  C0000068
 L  C0000069
 L  C0000070
 L  C0000071
 L  C0000072
 L  C0000073
 L  C0000074
 L  C0000075
 L  C0000076
 L  C0000077
 L  C0000078
 L  C0000079
 L  C0000080
 L  C0000081
 L  C0000082
 L  C0000083
 L  C0000084
 L  C0000085
 L  C0000086
 L  C0000087
 L  C0000088
 L  C0000089
 L  C0000090
 L  C0000091
COLUMNS
    X0000000  C0000000   1.000000000000e+00
    X0000000  C0000091   6.138283667570e-02
    X0000000  OBJ        8.967934560000e+02
    X0000001  C0000001   1.000000000000e+00
    X0000001  C0000002   1.000000000000e+00
    X0000001  C0000091   7.875977129912e-03
    X0000001  OBJ        1.150667700000e+02
    X0000002  C0000003   1.000000000000e+00
    X0000002  C0000004   1.000000000000e+00
    X0000002  C0000091   7.545994597843e-03
    X0000002  OBJ        1.102457778240e+02
    X0000003  C0000005   1.000000000000e+00
    X0000003  C0000006   1.000000000000e+00
    X0000003  C0000091   1.209672024372e-02
    X0000003  OBJ        1.767311538720e+02
    X0000004  C0000007   1.000000000000e+00
    X0000004  C0000008   1.000000000000e+00
    X0000004  C0000091   3.632309048030e-03
    X0000004  OBJ        5.306745600000e+01
    X0000005  C0000009   1.000000000000e+00
    X0000005  C0000010   1.000000000000e+00
    X0000005  C0000091   2.068389711277e-02
    X0000005  OBJ        3.021884386560e+02
    X0000006  C0000011   1.000000000000e+00
    X0000006  C0000012   1.000000000000e+00
    X0000006  C0000091   8.795030974964e-03
    X0000006  OBJ        1.284940001280e+02
    X0000007  C0000013   1.000000000000e+00
    X0000007  C0000014   1.000000000000e+00
    X0000007  C0000091   1.244390155680e+01
    X0000007  OBJ        6.188041296000e+01
    X0000008  C0000015   1.000000000000e+00
    X0000008  C0000091   1.239455000000e+02
    X0000008  OBJ        6.163500000000e+02
    X0000009  C0000016   1.000000000000e+00
    X0000009  C0000017   1.000000000000e+00
    X0000009  C0000091   9.918416379200e+00
    X0000009  OBJ        4.932180624000e+01
    X0000010  C0000018   1.000000000000e+00
    X0000010  C0000019   1.000000000000e+00
    X0000010  C0000091   1.830090012240e+01
    X0000010  OBJ        9.100580328000e+01
    X0000011  C0000020   1.000000000000e+00
    X0000011  C0000021   1.000000000000e+00
    X0000011  C0000091   9.150719200000e+00
    X0000011  OBJ        4.550424000000e+01
    X0000012  C0000022   1.000000000000e+00
    X0000012  C0000023   1.000000000000e+00
    X0000012  C0000091   2.347796908800e+01
    X0000012  OBJ        1.167500736000e+02
    X0000013  C0000024   1.000000000000e+00
    X0000013  C0000025   1.000000000000e+00
    X0000013  C0000091   1.099701136800e+01
    X0000013  OBJ        5.468538960000e+01
    X0000014  C0000026   1.000000000000e+00
    X0000014  C0000027   1.000000000000e+00
    X0000014  C0000091   9.580197751575e-04
    X0000014  OBJ        7.605803505600e+01
    X0000015  C0000028   1.000000000000e+00
    X0000015  C0000029   1.000000000000e+00
    X0000015  C0000091   9.502718444200e-04
    X0000015  OBJ        7.544292000000e+01
    X0000016  C0000030   1.000000000000e+00
    X0000016  C0000091   2.942841859246e-02
    X0000016  OBJ        2.336348112000e+03
    X0000017  C0000031   1.000000000000e+00
    X0000017  C0000032   1.000000000000e+00
    X0000017  C0000091   3.012201701027e-03
    X0000017  OBJ        2.391413502240e+02
    X0000018  C0000033   1.000000000000e+00
    X0000018  C0000034   1.000000000000e+00
    X0000018  C0000091   8.145187237885e-04
    X0000018  OBJ        6.466536000000e+01
    X0000019  C0000035   1.000000000000e+00
    X0000019  C0000036   1.000000000000e+00
    X0000019  C0000091   7.631668907042e-04
    X0000019  OBJ        6.058849267200e+01
    X0000020  C0000037   1.000000000000e+00
    X0000020  C0000038   1.000000000000e+00
    X0000020  C0000091   1.146353651860e-03
    X0000020  OBJ        9.101002766400e+01
    X0000021  C0000039   1.000000000000e+00
    X0000021  C0000040   1.000000000000e+00
    X0000021  C0000091   4.951135923036e-03
    X0000021  OBJ        1.557844960000e+02
    X0000022  C0000041   1.000000000000e+00
    X0000022  C0000042   1.000000000000e+00
    X0000022  C0000091   2.663010053267e-03
    X0000022  OBJ        8.379000000000e+01
    X0000023  C0000043   1.000000000000e+00
    X0000023  C0000044   1.000000000000e+00
    X0000023  C0000091   3.482033589650e-03
    X0000023  OBJ        1.095600800000e+02
    X0000024  C0000045   1.000000000000e+00
    X0000024  C0000091   1.094962101902e-01
    X0000024  OBJ        3.445232000000e+03
    X0000025  C0000046   1.000000000000e+00
    X0000025  C0000047   1.000000000000e+00
    X0000025  C0000091   5.103317587795e-03
    X0000025  OBJ        1.605728000000e+02
    X0000026  C0000048   1.000000000000e+00
    X0000026  C0000049   1.000000000000e+00
    X0000026  C0000091   9.697192294542e-03
    X0000026  OBJ        3.051162880000e+02
    X0000027  C0000050   1.000000000000e+00
    X0000027  C0000051   1.000000000000e+00
    X0000027  C0000091   2.541929447417e-03
    X0000027  OBJ        7.998027200000e+01
    X0000028  C0000052   1.000000000000e+00
    X0000028  C0000053   1.000000000000e+00
    X0000028  C0000091   3.556112871917e-03
    X0000028  OBJ        3.930343580800e+01
    X0000029  C0000054   1.000000000000e+00
    X0000029  C0000055   1.000000000000e+00
    X0000029  C0000091   2.149200019604e-03
    X0000029  OBJ        2.375373000000e+01
    X0000030  C0000056   1.000000000000e+00
    X0000030  C0000057   1.000000000000e+00
    X0000030  C0000091   1.318238534206e-02
    X0000030  OBJ        1.456964541760e+02
    X0000031  C0000058   1.000000000000e+00
    X0000031  C0000059   1.000000000000e+00
    X0000031  C0000091   1.012234132869e-03
    X0000031  OBJ        1.118757494400e+01
    X0000032  C0000060   1.000000000000e+00
    X0000032  C0000091   5.656768882766e-02
    X0000032  OBJ        6.252064000000e+02
    X0000033  C0000061   1.000000000000e+00
    X0000033  C0000062   1.000000000000e+00
    X0000033  C0000091   1.192530243397e-02
    X0000033  OBJ        1.318027226880e+02
    X0000034  C0000063   1.000000000000e+00
    X0000034  C0000064   1.000000000000e+00
    X0000034  C0000091   4.943733165093e-03
    X0000034  OBJ        5.463991332800e+01
    X0000035  C0000065   1.000000000000e+00
    X0000035  C0000066   1.000000000000e+00
    X0000035  C0000091   6.913845702551e-04
    X0000035  OBJ        1.446206596800e+01
    X0000036  C0000067   1.000000000000e+00
    X0000036  C0000068   1.000000000000e+00
    X0000036  C0000091   4.747698785708e-03
    X0000036  OBJ        9.931019000000e+01
    X0000037  C0000069   1.000000000000e+00
    X0000037  C0000070   1.000000000000e+00
    X0000037  C0000091   1.108619816234e-02
    X0000037  OBJ        2.318960185920e+02
    X0000038  C0000071   1.000000000000e+00
    X0000038  C0000072   1.000000000000e+00
    X0000038  C0000091   3.873524073858e-04
    X0000038  OBJ        8.102460352000e+00
    X0000039  C0000073   1.000000000000e+00
    X0000039  C0000074   1.000000000000e+00
    X0000039  C0000091   3.831483708457e-03
    X0000039  OBJ        8.014522240000e+01
    X0000040  C0000075   1.000000000000e+00
    X0000040  C0000091   7.868042370088e-02
    X0000040  OBJ        1.645801088000e+03
    X0000041  C0000076   1.000000000000e+00
    X0000041  C0000077   1.000000000000e+00
    X0000041  C0000091   4.090758262796e-03
    X0000041  OBJ        8.556860884800e+01
    X0000042  C0000078   1.000000000000e+00
    X0000042  C0000079   1.000000000000e+00
    X0000042  C0000091   1.192517744674e-02
    X0000042  OBJ        1.408324517280e+02
    X0000043  C0000080   1.000000000000e+00
    X0000043  C0000081   1.000000000000e+00
    X0000043  C0000091   1.469542747547e-02
    X0000043  OBJ        1.735482000000e+02
    X0000044  C0000082   1.000000000000e+00
    X0000044  C0000083   1.000000000000e+00
    X0000044  C0000091   9.882045173220e-04
    X0000044  OBJ        1.167037267200e+01
    X0000045  C0000084   1.000000000000e+00
    X0000045  C0000085   1.000000000000e+00
    X0000045  C0000091   3.507605398491e-02
    X0000045  OBJ        4.142367442080e+02
    X0000046  C0000086   1.000000000000e+00
    X0000046  C0000087   1.000000000000e+00
    X0000046  C0000091   1.221699864573e-02
    X0000046  OBJ        1.442787648000e+02
    X0000047  C0000088   1.000000000000e+00
    X0000047  C0000089   1.000000000000e+00
    X0000047  C0000091   1.259262576827e-02
    X0000047  OBJ        1.487147984640e+02
    X0000048  C0000090   1.000000000000e+00
    X0000048  C0000091   1.034798019620e-01
    X0000048  OBJ        1.222062672000e+03
    MARK      'MARKER'                 'INTORG'
    X0000049  C0000000  -1.000000000000e+00
    X0000049  C0000001  -1.000000000000e+00
    X0000049  C0000003  -1.000000000000e+00
    X0000049  C0000005  -1.000000000000e+00
    X0000049  C0000007  -1.000000000000e+00
    X0000049  C0000009  -1.000000000000e+00
    X0000049  C0000011  -1.000000000000e+00
    X0000049  C0000014   1.000000000000e+00
    X0000049  C0000027   1.000000000000e+00
    X0000049  C0000040   1.000000000000e+00
    X0000049  C0000053   1.000000000000e+00
    X0000049  C0000066   1.000000000000e+00
    X0000049  C0000079   1.000000000000e+00
    X0000049  OBJ       -6.932578739041e+01
    MARK      'MARKER'                 'INTEND'
    MARK      'MARKER'                 'INTORG'
    X0000050  C0000002   1.000000000000e+00
    X0000050  C0000013  -1.000000000000e+00
    X0000050  C0000015  -1.000000000000e+00
    X0000050  C0000016  -1.000000000000e+00
    X0000050  C0000018  -1.000000000000e+00
    X0000050  C0000020  -1.000000000000e+00
    X0000050  C0000022  -1.000000000000e+00
    X0000050  C0000024  -1.000000000000e+00
    X0000050  C0000029   1.000000000000e+00
    X0000050  C0000042   1.000000000000e+00
    X0000050  C0000055   1.000000000000e+00
    X0000050  C0000068   1.000000000000e+00
    X0000050  C0000081   1.000000000000e+00
    X0000050  OBJ       -3.200000000000e-02
    MARK      'MARKER'                 'INTEND'
    MARK      'MARKER'                 'INTORG'
    X0000051  C0000004   1.000000000000e+00
    X0000051  C0000017   1.000000000000e+00
    X0000051  C0000026  -1.000000000000e+00
    X0000051  C0000028  -1.000000000000e+00
    X0000051  C0000030  -1.000000000000e+00
    X0000051  C0000031  -1.000000000000e+00
    X0000051  C0000033  -1.000000000000e+00
    X0000051  C0000035  -1.000000000000e+00
    X0000051  C0000037  -1.000000000000e+00
    X0000051  C0000044   1.000000000000e+00
    X0000051  C0000057   1.000000000000e+00
    X0000051  C0000070   1.000000000000e+00
    X0000051  C0000083   1.000000000000e+00
    X0000051  OBJ       -3.039913322659e+01
    MARK      'MARKER'                 'INTEND'
    MARK      'MARKER'                 'INTORG'
    X0000052  C0000006   1.000000000000e+00
    X0000052  C0000019   1.000000000000e+00
    X0000052  C0000032   1.000000000000e+00
    X0000052  C0000039  -1.000000000000e+00
    X0000052  C0000041  -1.000000000000e+00
    X0000052  C0000043  -1.000000000000e+00
    X0000052  C0000045  -1.000000000000e+00
    X0000052  C0000046  -1.000000000000e+00
    X0000052  C0000048  -1.000000000000e+00
    X0000052  C0000050  -1.000000000000e+00
    X0000052  C0000059   1.000000000000e+00
    X0000052  C0000072   1.000000000000e+00
    X0000052  C0000085   1.000000000000e+00
    X0000052  OBJ       -1.122670807920e+02
    MARK      'MARKER'                 'INTEND'
    MARK      'MARKER'                 'INTORG'
    X0000053  C0000008   1.000000000000e+00
    X0000053  C0000021   1.000000000000e+00
    X0000053  C0000034   1.000000000000e+00
    X0000053  C0000047   1.000000000000e+00
    X0000053  C0000052  -1.000000000000e+00
    X0000053  C0000054  -1.000000000000e+00
    X0000053  C0000056  -1.000000000000e+00
    X0000053  C0000058  -1.000000000000e+00
    X0000053  C0000060  -1.000000000000e+00
    X0000053  C0000061  -1.000000000000e+00
    X0000053  C0000063  -1.000000000000e+00
    X0000053  C0000074   1.000000000000e+00
    X0000053  C0000087   1.000000000000e+00
    X0000053  OBJ       -5.877183374645e+01
    MARK      'MARKER'                 'INTEND'
    MARK      'MARKER'                 'INTORG'
    X0000054  C0000010   1.000000000000e+00
    X0000054  C0000023   1.000000000000e+00
    X0000054  C0000036   1.000000000000e+00
    X0000054  C0000049   1.000000000000e+00
    X0000054  C0000062   1.000000000000e+00
    X0000054  C0000065  -1.000000000000e+00
    X0000054  C0000067  -1.000000000000e+00
    X0000054  C0000069  -1.000000000000e+00
    X0000054  C0000071  -1.000000000000e+00
    X0000054  C0000073  -1.000000000000e+00
    X0000054  C0000075  -1.000000000000e+00
    X0000054  C0000076  -1.000000000000e+00
    X0000054  C0000089   1.000000000000e+00
    X0000054  OBJ       -8.350120339424e+01
    MARK      'MARKER'                 'INTEND'
    MARK      'MARKER'                 'INTORG'
    X0000055  C0000012   1.000000000000e+00
    X0000055  C0000025   1.000000000000e+00
    X0000055  C0000038   1.000000000000e+00
    X0000055  C0000051   1.000000000000e+00
    X0000055  C0000064   1.000000000000e+00
    X0000055  C0000077   1.000000000000e+00
    X0000055  C0000078  -1.000000000000e+00
    X0000055  C0000080  -1.000000000000e+00
    X0000055  C0000082  -1.000000000000e+00
    X0000055  C0000084  -1.000000000000e+00
    X0000055  C0000086  -1.000000000000e+00
    X0000055  C0000088  -1.000000000000e+00
    X0000055  C0000090  -1.000000000000e+00
    X0000055  OBJ       -1.182890778714e+02
    MARK      'MARKER'                 'INTEND'
RHS
    RHS       C0000000   0.000000000000e+00
    RHS       C0000001   0.000000000000e+00
    RHS       C0000002   1.000000000000e+00
    RHS       C0000003   0.000000000000e+00
    RHS       C0000004   1.000000000000e+00
    RHS       C0000005   0.000000000000e+00
    RHS       C0000006   1.000000000000e+00
    RHS       C0000007   0.000000000000e+00
    RHS       C0000008   1.000000000000e+00
    RHS       C0000009   0.000000000000e+00
    RHS       C0000010   1.000000000000e+00
    RHS       C0000011   0.000000000000e+00
    RHS       C0000012   1.000000000000e+00
    RHS       C0000013   0.000000000000e+00
    RHS       C0000014   1.000000000000e+00
    RHS       C0000015   0.000000000000e+00
    RHS       C0000016   0.000000000000e+00
    RHS       C0000017   1.000000000000e+00
    RHS       C0000018   0.000000000000e+00
    RHS       C0000019   1.000000000000e+00
    RHS       C0000020   0.000000000000e+00
    RHS       C0000021   1.000000000000e+00
    RHS       C0000022   0.000000000000e+00
    RHS       C0000023   1.000000000000e+00
    RHS       C0000024   0.000000000000e+00
    RHS       C0000025   1.000000000000e+00
    RHS       C0000026   0.000000000000e+00
    RHS       C0000027   1.000000000000e+00
    RHS       C0000028   0.000000000000e+00
    RHS       C0000029   1.000000000000e+00
    RHS       C0000030   0.000000000000e+00
    RHS       C0000031   0.000000000000e+00
    RHS       C0000032   1.000000000000e+00
    RHS       C0000033   0.000000000000e+00
    RHS       C0000034   1.000000000000e+00
    RHS       C0000035   0.000000000000e+00
    RHS       C0000036   1.000000000000e+00
    RHS       C0000037   0.000000000000e+00
    RHS       C0000038   1.000000000000e+00
    RHS       C0000039   0.000000000000e+00
    RHS       C0000040   1.000000000000e+00
    RHS       C0000041   0.000000000000e+00
    RHS       C0000042   1.000000000000e+00
    RHS       C0000043   0.000000000000e+00
    RHS       C0000044   1.000000000000e+00
    RHS       C0000045   0.000000000000e+00
    RHS       C0000046   0.000000000000e+00
    RHS       C0000047   1.000000000000e+00
    RHS       C0000048   0.000000000000e+00
    RHS       C0000049   1.000000000000e+00
    RHS       C0000050   0.000000000000e+00
    RHS       C0000051   1.000000000000e+00
    RHS       C0000052   0.000000000000e+00
    RHS       C0000053   1.000000000000e+00
    RHS       C0000054   0.000000000000e+00
    RHS       C0000055   1.000000000000e+00
    RHS       C0000056   0.000000000000e+00
    RHS       C0000057   1.000000000000e+00
    RHS       C0000058   0.000000000000e+00
    RHS       C0000059   1.000000000000e+00
    RHS       C0000060   0.000000000000e+00
    RHS       C0000061   0.000000000000e+00
    RHS       C0000062   1.000000000000e+00
    RHS       C0000063   0.000000000000e+00
    RHS       C0000064   1.000000000000e+00
    RHS       C0000065   0.000000000000e+00
    RHS       C0000066   1.000000000000e+00
    RHS       C0000067   0.000000000000e+00
    RHS       C0000068   1.000000000000e+00
    RHS       C0000069   0.000000000000e+00
    RHS       C0000070   1.000000000000e+00
    RHS       C0000071   0.000000000000e+00
    RHS       C0000072   1.000000000000e+00
    RHS       C0000073   0.000000000000e+00
    RHS       C0000074   1.000000000000e+00
    RHS       C0000075   0.000000000000e+00
    RHS       C0000076   0.000000000000e+00
    RHS       C0000077   1.000000000000e+00
    RHS       C0000078   0.000000000000e+00
    RHS       C0000079   1.000000000000e+00
    RHS       C0000080   0.000000000000e+00
    RHS       C0000081   1.000000000000e+00
    RHS       C0000082   0.000000000000e+00
    RHS       C0000083   1.000000000000e+00
    RHS       C0000084   0.000000000000e+00
    RHS       C0000085   1.000000000000e+00
    RHS       C0000086   0.000000000000e+00
    RHS       C0000087   1.000000000000e+00
    RHS       C0000088   0.000000000000e+00
    RHS       C0000089   1.000000000000e+00
    RHS       C0000090   0.000000000000e+00
    RHS       C0000091   2.282000000000e+02
BOUNDS
 BV BND       X0000049
 BV BND       X0000050
 BV BND       X0000051
 BV BND       X0000052
 BV BND       X0000053
 BV BND       X0000054
 BV BND       X0000055
ENDATA
